Minimize
  obj: x0 + x1 + x2 + x3 + x4 + x5 + x6

Subject To
  c0: x0 + x1 + x2 + x3 + x4 = 49
  c1: x4 = 8
  c2: x0 + x1 + x5 = 28
  c3: x1 + x3 + x5 = 28
  c4: x0 + x1 + x4 + x5 + x6 = 179
  c5: x0 + x5 = 9
  c6: x0 + x1 + x4 + x5 + x6 = 179
  c7: x0 + x1 + x2 + x6 = 180

Bounds
  x0 >= 0
  x1 >= 0
  x2 >= 0
  x3 >= 0
  x4 >= 0
  x5 >= 0
  x6 >= 0

Generals
  x0 x1 x2 x3 x4 x5 x6

End
